\* LP *\
Minimize
OBJ: 0.897605323308 a_0_0 + 0.456962421656 a_1_0 + 0.456962421656 a_1_1
 + 0.147633739951 a_2_0 + 0.147633739951 a_2_1 + 0.147633739951 a_2_2
 + 0.699260484824 a_3_0 + 0.699260484824 a_3_1 + 0.699260484824 a_3_2
 + 0.699260484824 a_3_3 + a_4_0 + a_4_1 + a_4_2 + a_4_3 + a_4_4
 + 0.941950143915 a_5_0 + 0.941950143915 a_5_1 + 0.941950143915 a_5_2
 + 0.941950143915 a_5_3 + 0.941950143915 a_5_4 + 0.941950143915 a_5_5
 + 0.545938587936 a_6_0 + 0.545938587936 a_6_1 + 0.545938587936 a_6_2
 + 0.545938587936 a_6_3 + 0.545938587936 a_6_4 + 0.545938587936 a_6_5
 + 0.545938587936 a_6_6 + 0.0459499307563 a_7_0 + 0.0459499307563 a_7_1
 + 0.0459499307563 a_7_2 + 0.0459499307563 a_7_3 + 0.0459499307563 a_7_4
 + 0.0459499307563 a_7_5 + 0.0459499307563 a_7_6 + 0.0459499307563 a_7_7
 + 0.621352102683 a_8_0 + 0.621352102683 a_8_1 + 0.621352102683 a_8_2
 + 0.621352102683 a_8_3 + 0.621352102683 a_8_4 + 0.621352102683 a_8_5
 + 0.621352102683 a_8_6 + 0.621352102683 a_8_7 + 0.621352102683 a_8_8
 + 0.973819744356 a_9_0 + 0.973819744356 a_9_1 + 0.973819744356 a_9_2
 + 0.973819744356 a_9_3 + 0.973819744356 a_9_4 + 0.973819744356 a_9_5
 + 0.973819744356 a_9_6 + 0.973819744356 a_9_7 + 0.973819744356 a_9_8
 + 0.973819744356 a_9_9
Subject To
_C1: a_0_0 - p >= -3.14159265359
_C10: a_2_1 + 0.782478985827 f + 0.622676992299 p >= 4.91646046692
_C100: a_9_4 + 0.984721438394 f + 0.174136982766 p >= 24.7487490935
_C101: a_9_5 - 0.984721438394 f - 0.174136982766 p >= -30.9359363669
_C102: a_9_5 + 0.984721438394 f + 0.174136982766 p >= 30.9359363669
_C103: a_9_6 - 0.984721438394 f - 0.174136982766 p >= -37.1231236403
_C104: a_9_6 + 0.984721438394 f + 0.174136982766 p >= 37.1231236403
_C105: a_9_7 - 0.984721438394 f - 0.174136982766 p >= -43.3103109137
_C106: a_9_7 + 0.984721438394 f + 0.174136982766 p >= 43.3103109137
_C107: a_9_8 - 0.984721438394 f - 0.174136982766 p >= -49.4974981871
_C108: a_9_8 + 0.984721438394 f + 0.174136982766 p >= 49.4974981871
_C109: a_9_9 - 0.984721438394 f - 0.174136982766 p >= -55.6846854605
_C11: a_2_2 - 0.782478985827 f - 0.622676992299 p >= -9.83292093385
_C110: a_9_9 + 0.984721438394 f + 0.174136982766 p >= 55.6846854605
_C12: a_2_2 + 0.782478985827 f + 0.622676992299 p >= 9.83292093385
_C13: a_3_0 - 0.883384045923 f - 0.468649791857 p >= -1.47230674321
_C14: a_3_0 + 0.883384045923 f + 0.468649791857 p >= 1.47230674321
_C15: a_3_1 - 0.883384045923 f - 0.468649791857 p >= -7.02277240115
_C16: a_3_1 + 0.883384045923 f + 0.468649791857 p >= 7.02277240115
_C17: a_3_2 - 0.883384045923 f - 0.468649791857 p >= -12.5732380591
_C18: a_3_2 + 0.883384045923 f + 0.468649791857 p >= 12.5732380591
_C19: a_3_3 - 0.883384045923 f - 0.468649791857 p >= -18.123703717
_C2: a_0_0 + p >= 3.14159265359
_C20: a_3_3 + 0.883384045923 f + 0.468649791857 p >= 18.123703717
_C21: a_4_0 - 0.929152033578 f - 0.36969784757 p >= 0
_C22: a_4_0 + 0.929152033578 f + 0.36969784757 p >= 0
_C23: a_4_1 - 0.929152033578 f - 0.36969784757 p >= -5.83803440551
_C24: a_4_1 + 0.929152033578 f + 0.36969784757 p >= 5.83803440551
_C25: a_4_2 - 0.929152033578 f - 0.36969784757 p >= -11.676068811
_C26: a_4_2 + 0.929152033578 f + 0.36969784757 p >= 11.676068811
_C27: a_4_3 - 0.929152033578 f - 0.36969784757 p >= -17.5141032165
_C28: a_4_3 + 0.929152033578 f + 0.36969784757 p >= 17.5141032165
_C29: a_4_4 - 0.929152033578 f - 0.36969784757 p >= -23.3521376221
_C3: a_1_0 - 0.532018044501 f - 0.846733015965 p >= 0
_C30: a_4_4 + 0.929152033578 f + 0.36969784757 p >= 23.3521376221
_C31: a_5_0 - 0.952890513989 f - 0.303314471053 p >= -0.952890513989
_C32: a_5_0 + 0.952890513989 f + 0.303314471053 p >= 0.952890513989
_C33: a_5_1 - 0.952890513989 f - 0.303314471053 p >= -6.94007819083
_C34: a_5_1 + 0.952890513989 f + 0.303314471053 p >= 6.94007819083
_C35: a_5_2 - 0.952890513989 f - 0.303314471053 p >= -12.9272658677
_C36: a_5_2 + 0.952890513989 f + 0.303314471053 p >= 12.9272658677
_C37: a_5_3 - 0.952890513989 f - 0.303314471053 p >= -18.9144535445
_C38: a_5_3 + 0.952890513989 f + 0.303314471053 p >= 18.9144535445
_C39: a_5_4 - 0.952890513989 f - 0.303314471053 p >= -24.9016412214
_C4: a_1_0 + 0.532018044501 f + 0.846733015965 p >= 0
_C40: a_5_4 + 0.952890513989 f + 0.303314471053 p >= 24.9016412214
_C41: a_5_5 - 0.952890513989 f - 0.303314471053 p >= -30.8888288982
_C42: a_5_5 + 0.952890513989 f + 0.303314471053 p >= 30.8888288982
_C43: a_6_0 - 0.966573028681 f - 0.256391458957 p >= 0
_C44: a_6_0 + 0.966573028681 f + 0.256391458957 p >= 0
_C45: a_6_1 - 0.966573028681 f - 0.256391458957 p >= -6.07315745213
_C46: a_6_1 + 0.966573028681 f + 0.256391458957 p >= 6.07315745213
_C47: a_6_2 - 0.966573028681 f - 0.256391458957 p >= -12.1463149043
_C48: a_6_2 + 0.966573028681 f + 0.256391458957 p >= 12.1463149043
_C49: a_6_3 - 0.966573028681 f - 0.256391458957 p >= -18.2194723564
_C5: a_1_1 - 0.532018044501 f - 0.846733015965 p >= -3.34276796037
_C50: a_6_3 + 0.966573028681 f + 0.256391458957 p >= 18.2194723564
_C51: a_6_4 - 0.966573028681 f - 0.256391458957 p >= -24.2926298085
_C52: a_6_4 + 0.966573028681 f + 0.256391458957 p >= 24.2926298085
_C53: a_6_5 - 0.966573028681 f - 0.256391458957 p >= -30.3657872606
_C54: a_6_5 + 0.966573028681 f + 0.256391458957 p >= 30.3657872606
_C55: a_6_6 - 0.966573028681 f - 0.256391458957 p >= -36.4389447128
_C56: a_6_6 + 0.966573028681 f + 0.256391458957 p >= 36.4389447128
_C57: a_7_0 - 0.975113574958 f - 0.221705922187 p >= 0
_C58: a_7_0 + 0.975113574958 f + 0.221705922187 p >= 0
_C59: a_7_1 - 0.975113574958 f - 0.221705922187 p >= -6.12681928701
_C6: a_1_1 + 0.532018044501 f + 0.846733015965 p >= 3.34276796037
_C60: a_7_1 + 0.975113574958 f + 0.221705922187 p >= 6.12681928701
_C61: a_7_2 - 0.975113574958 f - 0.221705922187 p >= -12.253638574
_C62: a_7_2 + 0.975113574958 f + 0.221705922187 p >= 12.253638574
_C63: a_7_3 - 0.975113574958 f - 0.221705922187 p >= -18.380457861
_C64: a_7_3 + 0.975113574958 f + 0.221705922187 p >= 18.380457861
_C65: a_7_4 - 0.975113574958 f - 0.221705922187 p >= -24.507277148
_C66: a_7_4 + 0.975113574958 f + 0.221705922187 p >= 24.507277148
_C67: a_7_5 - 0.975113574958 f - 0.221705922187 p >= -30.634096435
_C68: a_7_5 + 0.975113574958 f + 0.221705922187 p >= 30.634096435
_C69: a_7_6 - 0.975113574958 f - 0.221705922187 p >= -36.760915722
_C7: a_2_0 - 0.782478985827 f - 0.622676992299 p >= 0
_C70: a_7_6 + 0.975113574958 f + 0.221705922187 p >= 36.760915722
_C71: a_7_7 - 0.975113574958 f - 0.221705922187 p >= -42.8877350091
_C72: a_7_7 + 0.975113574958 f + 0.221705922187 p >= 42.8877350091
_C73: a_8_0 - 0.980779403919 f - 0.195119862771 p >= -0.61298712745
_C74: a_8_0 + 0.980779403919 f + 0.195119862771 p >= 0.61298712745
_C75: a_8_1 - 0.980779403919 f - 0.195119862771 p >= -6.77540586774
_C76: a_8_1 + 0.980779403919 f + 0.195119862771 p >= 6.77540586774
_C77: a_8_2 - 0.980779403919 f - 0.195119862771 p >= -12.937824608
_C78: a_8_2 + 0.980779403919 f + 0.195119862771 p >= 12.937824608
_C79: a_8_3 - 0.980779403919 f - 0.195119862771 p >= -19.1002433483
_C8: a_2_0 + 0.782478985827 f + 0.622676992299 p >= 0
_C80: a_8_3 + 0.980779403919 f + 0.195119862771 p >= 19.1002433483
_C81: a_8_4 - 0.980779403919 f - 0.195119862771 p >= -25.2626620886
_C82: a_8_4 + 0.980779403919 f + 0.195119862771 p >= 25.2626620886
_C83: a_8_5 - 0.980779403919 f - 0.195119862771 p >= -31.4250808289
_C84: a_8_5 + 0.980779403919 f + 0.195119862771 p >= 31.4250808289
_C85: a_8_6 - 0.980779403919 f - 0.195119862771 p >= -37.5874995692
_C86: a_8_6 + 0.980779403919 f + 0.195119862771 p >= 37.5874995692
_C87: a_8_7 - 0.980779403919 f - 0.195119862771 p >= -43.7499183095
_C88: a_8_7 + 0.980779403919 f + 0.195119862771 p >= 43.7499183095
_C89: a_8_8 - 0.980779403919 f - 0.195119862771 p >= -49.9123370498
_C9: a_2_1 - 0.782478985827 f - 0.622676992299 p >= -4.91646046692
_C90: a_8_8 + 0.980779403919 f + 0.195119862771 p >= 49.9123370498
_C91: a_9_0 - 0.984721438394 f - 0.174136982766 p >= 0
_C92: a_9_0 + 0.984721438394 f + 0.174136982766 p >= 0
_C93: a_9_1 - 0.984721438394 f - 0.174136982766 p >= -6.18718727338
_C94: a_9_1 + 0.984721438394 f + 0.174136982766 p >= 6.18718727338
_C95: a_9_2 - 0.984721438394 f - 0.174136982766 p >= -12.3743745468
_C96: a_9_2 + 0.984721438394 f + 0.174136982766 p >= 12.3743745468
_C97: a_9_3 - 0.984721438394 f - 0.174136982766 p >= -18.5615618202
_C98: a_9_3 + 0.984721438394 f + 0.174136982766 p >= 18.5615618202
_C99: a_9_4 - 0.984721438394 f - 0.174136982766 p >= -24.7487490935
Bounds
f <= 5
p <= 6.28318530718
End
